NAME: tsp_430
COMMENT: Random TSP instance
TYPE: TSP
DIMENSION: 50
EDGE_WEIGHT_TYPE: EUC_2D
NODE_COORD_SECTION
1 653 604
2 774 410
3 977 381
4 301 509
5 154 498
6 419 258
7 507 63
8 915 525
9 725 637
10 149 489
11 334 581
12 300 948
13 306 221
14 367 13
15 111 989
16 563 117
17 465 487
18 444 529
19 82 221
20 597 119
21 356 537
22 78 273
23 243 111
24 499 869
25 790 85
26 211 510
27 823 837
28 560 4
29 800 826
30 660 786
31 622 104
32 499 906
33 159 223
34 1000 900
35 802 933
36 869 955
37 116 633
38 766 633
39 473 121
40 701 437
41 974 759
42 660 947
43 241 76
44 513 975
45 612 974
46 402 938
47 85 828
48 381 186
49 862 245
50 911 718
